c This is QMaxSAT 2017 based on 14.07
c This is Glucose 3.0
c This is MiniSat 2.2.0
c WARNING: for repeatability, setting FPU to use double precision
c card = mrwto, comp = 0, pmodel = 0, narr = 3, mct = 16, verb = 0
cr firstCPXsol 0 0 0
c top = 214379
c |  Number of variables:    3918                                             |
c |  Number of clauses:      341766                                           |
c |  Weight of hard clauses: 214379                                           |
c |  Number of soft clauses: 720                                              |
c |  Number of unit soft clauses: 720                                         |
c |  Maximum Cardinality (by unit): 643134       (643134      )               |
c last restart ## conflicts  :  53 1292 
o 10982 | cpuTime 0.063385 s
c Sum of weights = 214378
c A number of soft clauses remained = 240
c MRWTO encoding for Pseudo-Boolean Constraints
c sizeMax=10982
c No.0 Divisor=11	generated by pow1
c No.1 Divisor=10	generated by pow1
c No.2 Divisor=11	generated by pow1
c No.3 Divisor=11	generated by pow1
c p0= 11	p1= 10	p2= 11	p3= 11	
c number of digits = 5
c linkingVar[0].size = 11, linkingVar[1].size = 10, linkingVar[2].size = 11, linkingVar[3].size = 10, linkingVar[4].size = 1, 
c Pseudo-Boolean Constraints: 6669 variables and 64367 clauses
c Sum of weights = 214378
c A number of soft clauses remained = 240
c MRWTO encoding for Pseudo-Boolean Constraints
c sizeMax=10982
c No.0 Divisor=11	generated by pow1
c No.1 Divisor=10	generated by pow1
c No.2 Divisor=11	generated by pow1
c No.3 Divisor=11	generated by pow1
c p0= 11	p1= 10	p2= 11	p3= 11	
c number of digits = 5
c linkingVar[0].size = 11, linkingVar[1].size = 10, linkingVar[2].size = 11, linkingVar[3].size = 10, linkingVar[4].size = 1, 
c Pseudo-Boolean Constraints: 6669 variables and 64367 clauses
c Sum of weights = 214378
c A number of soft clauses remained = 240
c MRWTO encoding for Pseudo-Boolean Constraints
c sizeMax=10982
c No.0 Divisor=11	generated by pow1
c No.1 Divisor=10	generated by pow1
c No.2 Divisor=11	generated by pow1
c No.3 Divisor=11	generated by pow1
c p0= 11	p1= 10	p2= 11	p3= 11	
c number of digits = 5
c linkingVar[0].size = 11, linkingVar[1].size = 10, linkingVar[2].size = 11, linkingVar[3].size = 10, linkingVar[4].size = 1, 
c Pseudo-Boolean Constraints: 6669 variables and 64367 clauses
c last restart ## conflicts  :  33 2840 
o 8870 | cpuTime 0.183471 s
c last restart ## conflicts  :  324 3987 
o 8816 | cpuTime 0.213728 s
c last restart ## conflicts  :  379 6754 
o 7437 | cpuTime 0.233991 s
c last restart ## conflicts  :  218 3498 
o 7135 | cpuTime 0.262076 s
c last restart ## conflicts  :  36 3966 
o 7022 | cpuTime 0.29283 s
c last restart ## conflicts  :  167 3055 
o 6769 | cpuTime 0.354394 s
c last restart ## conflicts  :  244 3037 
o 6721 | cpuTime 0.413539 s
c last restart ## conflicts  :  15 9274 
o 5743 | cpuTime 0.419429 s
c last restart ## conflicts  :  230 2481 
o 5486 | cpuTime 0.487892 s
c last restart ## conflicts  :  145 3732 
o 5265 | cpuTime 0.521303 s
c last restart ## conflicts  :  181 2059 
o 5264 | cpuTime 0.898691 s
c last restart ## conflicts  :  281 4712 
o 5145 | cpuTime 0.919098 s
c last restart ## conflicts  :  43 2132 
o 5144 | cpuTime 1.54819 s
s OPTIMUM FOUND
cr positiVarArr: [ | 11@1(1->11) | 161@1(11->1) | 260@2(1->4) | 273@2(2->1) | 290@2(3->2) | 309@2(4->5) | 330@2(5->10) | 403@2(10->3) | 526@3(1->14) | 601@3(6->9) | 624@3(7->16) | 625@3(8->1) | 647@3(9->7) | 703@3(12->15) | 716@3(13->12) | 733@3(14->13) | 742@3(15->6) | 760@3(16->8) | ]
cr the 1-th chain: [ 1->11->1 ] (#non-depot=1) {#cumul.=2}
cr the 2-th chain: [ 1->4->5->10->3->2->1 ] (#non-depot=5) {#cumul.=7}
cr the 3-th chain: [ 1->14->13->12->15->6->9->7->16->8->1 ] (#non-depot=9) {#cumul.=16}
c Latest Answer = 0 by 14 loops
c restarts              : 9058
c conflicts             : 2162623        (16800 /sec)
c decisions             : 9347328        (0.00 % random) (72613 /sec)
c propagations          : 979144821      (7606353 /sec)
c conflict literals     : 104138027      (54.40 % deleted)
c Memory used           : 151.00 MB
c CPU time              : 128.727 s
